100
1000
495
487
487
485
484
484
481
477
471
467
466
466
463
462
458
449
448
445
443
431
422
420
419
418
415
414
406
405
403
400
399
398
396
392
392
386
385
377
376
375
374
373
372
371
370
370
370
369
365
365
360
360
355
350
346
346
331
327
321
310
308
305
304
303
299
293
291
290
286
276
271
270
266
264
261
261
260
260
256
254
252
251
250
248
242
241
212
211
209
206
205
201
195
195
192
191
191
189
174
167
